
Gurobi 12.0.2 (win64) logging started Thu Oct 30 21:02:18 2025

Set parameter LogFile to value "resultados\instancia_3_log.txt"
Gurobi Optimizer version 12.0.2 build v12.0.2rc0 (win64 - Windows 10.0 (19045.2))

CPU model: Intel(R) Core(TM) i5-6300U CPU @ 2.40GHz, instruction set [SSE2|AVX|AVX2]
Thread count: 2 physical cores, 4 logical processors, using up to 4 threads

Optimize a model with 410 rows, 651 columns and 35879 nonzeros
Model fingerprint: 0x8a64dc00
Variable types: 0 continuous, 651 integer (651 binary)
Coefficient statistics:
  Matrix range     [1e+00, 1e+00]
  Objective range  [4e-02, 2e-01]
  Bounds range     [1e+00, 1e+00]
  RHS range        [1e+00, 5e+00]
Found heuristic solution: objective 0.5615100
Presolve removed 233 rows and 584 columns
Presolve time: 0.02s
Presolved: 177 rows, 67 columns, 1347 nonzeros
Found heuristic solution: objective 0.1853280
Variable types: 0 continuous, 67 integer (67 binary)

Root relaxation: objective 7.102260e-01, 49 iterations, 0.00 seconds (0.00 work units)

    Nodes    |    Current Node    |     Objective Bounds      |     Work
 Expl Unexpl |  Obj  Depth IntInf | Incumbent    BestBd   Gap | It/Node Time

     0     0    0.71023    0    5    0.56151    0.71023  26.5%     -    0s
H    0     0                       0.5834760    0.71023  21.7%     -    0s
H    0     0                       0.6881820    0.71023  3.20%     -    0s
H    0     0                       0.6940020    0.71023  2.34%     -    0s
H    0     0                       0.7073160    0.71023  0.41%     -    0s
     0     0     cutoff    0         0.70732    0.70732  0.00%     -    0s

Cutting planes:
  Gomory: 1
  MIR: 1
  Zero half: 1

Explored 1 nodes (52 simplex iterations) in 0.05 seconds (0.02 work units)
Thread count was 4 (of 4 available processors)

Solution count 6: 0.707316 0.694002 0.688182 ... 0.185328
No other solutions better than 0.707316

Optimal solution found (tolerance 1.00e-04)
Best objective 7.073160000000e-01, best bound 7.073160000000e-01, gap 0.0000%
